c ! encoding i-pc 250
p cnf 456 712
26 -252 0
95 -253 0
229 -254 0
200 -255 0
67 -256 0
257 0
258 -259 0
259 -260 0
205 -260 0
198 -261 0
-205 -261 0
260 261 -262 0
262 -263 0
89 -263 0
205 -264 0
258 -264 0
264 -265 0
-89 -265 0
263 265 -266 0
266 -267 0
82 -267 0
267 -268 0
245 -268 0
-198 -269 0
205 -269 0
269 -271 0
270 -271 0
271 -273 0
272 -273 0
273 -274 0
-245 -274 0
268 274 -275 0
213 -276 0
152 -276 0
277 -278 0
278 -279 0
-152 -279 0
276 279 -280 0
-206 -281 0
2 -281 0
282 -283 0
283 -284 0
-2 -284 0
281 284 -285 0
275 -286 0
280 -286 0
285 -286 0
-32 -286 0
286 -288 0
287 -288 0
288 -289 0
124 -289 0
82 -290 0
258 -290 0
290 -291 0
245 -291 0
-198 -292 0
272 -292 0
292 -293 0
-245 -293 0
291 293 -294 0
152 -295 0
213 -295 0
295 -296 0
32 -296 0
280 -297 0
-32 -297 0
296 297 -298 0
-89 -299 0
205 -299 0
206 -299 0
-231 -299 0
294 -300 0
298 -300 0
299 -300 0
300 -301 0
-124 -301 0
289 301 -302 0
182 -303 0
195 -303 0
304 -305 0
305 -306 0
-195 -306 0
303 306 -307 0
307 -308 0
308 -310 0
309 -310 0
310 -311 0
109 -311 0
182 -312 0
195 -312 0
312 -314 0
313 -314 0
314 -315 0
-109 -315 0
311 315 -316 0
-10 -317 0
62 -317 0
-129 -317 0
-136 -317 0
-142 -317 0
-197 -317 0
221 -317 0
-228 -317 0
318 -320 0
319 -320 0
302 -321 0
316 -321 0
317 -321 0
320 -321 0
321 -322 0
75 -322 0
-152 -323 0
277 -323 0
323 -324 0
142 -324 0
280 -325 0
-142 -325 0
324 325 -326 0
275 -327 0
326 -327 0
-32 -327 0
327 -328 0
282 -328 0
287 -328 0
328 -329 0
124 -329 0
152 -330 0
213 -330 0
330 -331 0
32 -331 0
326 -332 0
-32 -332 0
331 332 -333 0
-89 -334 0
205 -334 0
206 -334 0
-231 -334 0
333 -335 0
294 -335 0
334 -335 0
335 -336 0
-124 -336 0
329 336 -337 0
-2 -338 0
-136 -338 0
-197 -338 0
337 -339 0
307 -339 0
338 -339 0
339 -340 0
62 -340 0
341 -342 0
342 -343 0
89 -343 0
205 -344 0
-89 -344 0
343 344 -345 0
345 -346 0
326 -346 0
285 -346 0
-32 -346 0
346 -347 0
287 -347 0
347 -348 0
124 -348 0
333 -349 0
299 -349 0
349 -350 0
-124 -350 0
348 350 -351 0
351 -352 0
136 -352 0
345 -353 0
326 -353 0
-32 -353 0
353 -354 0
282 -354 0
287 -354 0
354 -355 0
124 -355 0
333 -356 0
334 -356 0
356 -357 0
-124 -357 0
355 357 -358 0
358 -359 0
-2 -359 0
359 -360 0
-136 -360 0
352 360 -361 0
-182 -362 0
-195 -362 0
197 -362 0
362 -363 0
207 -363 0
307 -365 0
364 -365 0
365 -366 0
-207 -366 0
363 366 -367 0
361 -368 0
367 -368 0
294 -368 0
368 -369 0
-62 -369 0
340 369 -370 0
-228 -371 0
59 -371 0
372 -373 0
373 -374 0
-59 -374 0
371 374 -375 0
375 -376 0
12 -376 0
319 -377 0
372 -377 0
377 -378 0
-12 -378 0
376 378 -379 0
370 -381 0
379 -381 0
380 -381 0
381 -382 0
-75 -382 0
383 -384 0
165 -385 0
12 -386 0
-62 -386 0
136 -386 0
351 -388 0
375 -388 0
367 -388 0
294 -388 0
386 -388 0
387 -388 0
-165 -389 0
151 -391 0
392 -393 0
393 -394 0
-151 -394 0
-166 -396 0
396 -397 0
27 -397 0
166 -398 0
119 -398 0
399 -400 0
400 -401 0
-119 -401 0
402 -403 0
-27 -403 0
406 -410 0
407 -410 0
408 -410 0
409 -410 0
390 -411 0
395 -411 0
404 -411 0
410 -411 0
-67 -412 0
161 -416 0
-161 -417 0
-200 -421 0
-229 -425 0
172 -428 0
-172 -429 0
193 -433 0
-193 -434 0
185 -438 0
-185 -439 0
-95 -442 0
160 -444 0
-160 -445 0
-26 -448 0
241 -450 0
-241 -451 0
159 -454 0
-159 -455 0
-1 0
3 0
-4 0
-5 0
-6 0
7 0
8 0
-9 0
11 0
-13 0
14 0
15 0
16 0
-17 0
18 0
19 0
20 0
21 0
-22 0
-23 0
24 0
-25 0
28 0
29 0
30 0
-31 0
-33 0
34 0
35 0
-36 0
-37 0
38 0
39 0
40 0
41 0
42 0
43 0
-44 0
45 0
-46 0
47 0
48 0
49 0
-50 0
-51 0
52 0
53 0
54 0
-55 0
-56 0
-57 0
-58 0
-60 0
61 0
-63 0
64 0
-65 0
-66 0
68 0
69 0
-70 0
-71 0
72 0
73 0
-74 0
-76 0
-77 0
-78 0
79 0
-80 0
-81 0
-83 0
-84 0
-85 0
86 0
-87 0
-88 0
90 0
-91 0
92 0
93 0
-94 0
96 0
-97 0
98 0
99 0
-100 0
-101 0
-102 0
103 0
104 0
-105 0
-106 0
107 0
-110 0
-111 0
-112 0
113 0
-114 0
-115 0
-116 0
117 0
-118 0
-120 0
-121 0
-122 0
123 0
125 0
126 0
-127 0
128 0
130 0
131 0
132 0
-133 0
-134 0
135 0
-137 0
-138 0
139 0
141 0
-143 0
145 0
-146 0
147 0
148 0
149 0
150 0
153 0
-154 0
-156 0
157 0
162 0
-164 0
167 0
168 0
169 0
-170 0
-171 0
173 0
174 0
-175 0
176 0
177 0
178 0
-179 0
181 0
183 0
184 0
-186 0
187 0
188 0
189 0
190 0
-191 0
192 0
194 0
196 0
199 0
-201 0
-202 0
-203 0
204 0
-208 0
-209 0
-210 0
-211 0
212 0
-214 0
-215 0
-216 0
218 0
219 0
220 0
222 0
-223 0
-224 0
225 0
-226 0
-227 0
-230 0
232 0
233 0
234 0
235 0
-236 0
-237 0
238 0
-239 0
240 0
-242 0
-243 0
244 0
-246 0
247 0
248 0
-249 0
250 0
-454 456 0
-450 452 0
-444 446 0
-443 444 0
-437 438 0
-430 432 0
-428 430 0
-427 428 0
-442 443 0
-421 422 0
-420 421 0
-416 418 0
-435 437 0
-412 413 0
-411 412 0
-438 440 0
-449 450 0
-448 449 0
-415 416 0
-447 448 0
-322 383 0
-433 435 0
-319 320 377 0
-283 284 0
-426 427 0
-361 368 0
-318 320 0
12 318 378 0
-62 317 340 0
109 315 0
-59 319 371 0
-414 415 0
-313 314 0
180 313 0
-296 298 0
-312 314 0
-392 393 0
-304 305 0
-259 260 0
-310 311 0
182 304 362 0
-136 352 386 0
-321 322 0
-195 303 312 0
-323 324 0
-353 354 0
-315 316 0
-347 348 0
59 319 374 0
-301 302 0
124 301 336 350 357 0
-336 337 0
-228 372 0
-400 401 0
-297 298 0
-343 345 0
-370 381 0
-307 308 339 365 0
-103 441 0
195 306 362 0
-396 397 0
228 317 371 372 0
-354 355 0
-306 307 0
-294 300 335 368 388 0
-303 307 0
-293 294 0
-32 296 331 0
-251 252 253 254 255 256 417 429 434 439 445 451 455 0
-292 293 0
-311 316 0
-349 350 0
-289 302 0
-441 442 0
-124 289 329 348 355 0
-405 411 0
231 287 299 334 0
-231 287 0
-330 331 0
82 272 0
-267 268 0
-82 267 272 290 0
-273 274 0
-264 265 0
-272 273 292 0
-263 266 0
-287 288 328 347 354 0
-265 266 0
205 261 341 0
-276 280 0
-422 424 0
-358 359 0
198 258 269 292 0
-260 262 0
-298 300 0
-366 367 0
142 317 325 330 0
-309 310 0
-373 374 0
-402 403 0
-206 282 299 334 0
-89 263 270 343 0
-372 373 377 0
-281 285 0
-275 286 327 0
217 309 0
-269 271 0
152 279 323 0
-329 337 0
245 274 293 0
129 317 0
-152 276 295 330 0
-266 267 0
-432 433 0
119 396 401 0
-419 420 0
89 265 270 299 334 344 0
-348 351 0
32 286 297 327 332 346 353 0
-290 291 0
-75 322 0
-282 283 328 354 0
-279 280 0
-424 425 0
207 317 338 366 0
-359 360 0
-262 263 0
-198 258 261 0
-270 271 0
-258 259 264 290 0
-271 273 0
-123 453 0
-308 310 0
-399 400 0
-192 447 0
-278 279 0
156 436 0
-274 275 0
-334 335 356 0
-2 281 0
-261 262 0
-288 289 0
-277 278 323 0
-280 286 297 325 0
-352 361 0
206 281 282 0
-314 315 0
-378 379 0
10 317 0
-387 388 0
-268 275 0
136 317 338 360 0
-245 268 291 0
2 284 299 338 359 0
-284 285 0
-369 370 0
-305 306 0
-339 340 0
-299 300 349 0
-291 294 0
-142 324 0
-324 326 0
-381 382 0
-325 326 0
-357 358 0
-327 328 0
-384 385 0
-328 329 0
-332 333 0
-333 335 349 356 0
-335 336 0
-285 286 346 0
-337 339 0
-213 276 277 295 330 0
-340 370 0
-257 259 278 283 305 342 373 377 393 400 0
-341 342 0
-342 343 0
-344 345 0
-317 321 0
62 369 386 0
-345 346 353 0
158 384 387 0
-346 347 0
-350 351 0
-351 352 388 0
-355 358 0
-356 357 0
-425 426 0
-360 361 0
-286 288 0
-197 362 364 0
-383 384 0
-362 363 0
-295 296 0
-207 363 0
211 431 0
-119 398 0
-363 367 0
-300 301 0
-364 365 0
83 419 0
-365 366 0
-367 368 388 0
-320 321 0
213 277 0
-368 369 0
-371 375 0
-374 375 0
-375 376 388 0
-376 379 0
-316 321 0
-379 381 0
-338 339 0
221 380 386 0
-221 317 0
-380 381 0
-382 383 0
-453 454 0
-331 333 0
-386 388 0
-158 387 0
-401 402 0
-326 327 332 346 353 0
-388 389 0
-302 321 0
-377 378 0
-151 391 0
-144 392 0
-393 394 0
151 394 0
-153 414 0
-27 397 0
27 403 0
-173 423 0
80 405 0
